p cnf 23 9
a 1 0
e 2 3 4 5 6 0
a 7 0
e 8 0
a 9 10 11 12 13 14 0
e 15 0
a 16 0
e 17 18 0
a 19 0
e 20 0
a 21 0
e 22 23 0
10 -11 -6 1 -2 0
-17 1 9 -3 0
4 11 -20 10 0
17 -16 -19 -2 -8 0
-10 12 16 17 -23 0
-11 -12 -21 -4 0
5 7 -3 12 0
1 20 -22 -5 7 0
-22 -7 11 0
